100 3100
52 63
18 85
66 67
64 62
56 10
12 80
25 77
64 84
10 30
22 64
94 45
26 30
64 93
69 72
60 5
25 85
26 81
71 17
79 10
24 62
77 54
62 36
92 16
76 20
46 80
78 67
73 83
98 99
28 70
4 20
15 36
43 73
33 84
22 88
37 56
55 80
41 56
51 65
32 96
51 28
38 36
76 37
62 22
77 84
4 61
23 15
89 69
15 51
74 88
85 20
52 63
18 85
66 67
64 62
56 10
12 80
25 77
64 84
10 30
22 64
94 45
26 30
64 93
69 72
60 5
25 85
26 81
71 17
79 10
24 62
77 54
62 36
92 16
76 20
46 80
78 67
73 83
98 99
28 70
4 20
15 36
43 73
33 84
22 88
37 56
55 80
41 56
51 65
32 96
51 28
38 36
76 37
62 22
77 84
4 61
23 15
89 69
15 51
74 88
85 20